24
[2Fe-2S(SMe)4]2- idealized model geometry
Fe  1.345500  0.000000  0.000000
Fe -1.345500  0.000000  0.000000
S   0.000000  1.738055  0.000000
S   0.000000 -1.738055  0.000000
S   2.644538  0.000000  1.837117
S   2.644538  0.000000 -1.837117
S  -2.644538  0.000000 -1.837117
S  -2.644538  0.000000  1.837117
C   3.683425 -1.486018  1.679430
H   4.276525 -1.419557  0.767337
H   4.347883 -1.557827  2.540499
H   3.048019 -2.370594  1.636022
C   3.683425 -1.486018 -1.679430
H   3.755881 -1.982984 -2.646837
H   4.679619 -1.198831 -1.342948
H   3.236927 -2.166163 -0.954074
C  -3.683425  1.486018 -1.679430
H  -3.048019  2.370594 -1.636022
H  -4.347883  1.557827 -2.540499
H  -4.276525  1.419557 -0.767337
C  -3.683425  1.486018  1.679430
H  -4.705081  1.248169  1.975651
H  -3.292061  2.272997  2.324099
H  -3.675285  1.826812  0.644108
