24
[2Fe-2S(SMe)4]2- idealized model, charge -2
Fe     1.350000     0.000000     0.000000
Fe    -1.350000     0.000000     0.000000
S      0.000000     1.737095     0.000000
S      0.000000    -1.737095     0.000000
S      2.602670     0.000000     1.928942
C      1.391543     0.000000     3.274034
H      1.911646     0.000000     4.231945
H      0.766298     0.889823     3.200668
H      0.766298    -0.889823     3.200668
S      2.602670     0.000000    -1.928942
C      2.857813     1.748326    -2.321828
H      3.925812     1.951403    -2.400807
H      2.372855     1.982840    -3.269414
H      2.428639     2.365088    -1.532199
S     -2.602670     0.000000     1.928942
C     -4.324082    -0.000000     1.369622
H     -4.352615    -0.000000     0.279995
H     -4.828878    -0.889823     1.745781
H     -4.828878     0.889823     1.745781
S     -2.602670     0.000000    -1.928942
C     -2.857813     1.748326    -2.321828
H     -3.925812     1.951403    -2.400807
H     -2.428639     2.365088    -1.532199
H     -2.372855     1.982840    -3.269414
